
Gurobi 10.0.1 (linux64) logging started Fri 14 Jul 2023 04:07:08 PM CDT

Set parameter LogFile to value "/home/dlcole3/graph_abstraction/plasmoexamples/SHP_serial/SHP_reserve_requirements/gurobi_logs/logfile9.log"
Set parameter NodefileStart to value 0.0005
Set parameter TimeLimit to value 36000
Gurobi Optimizer version 10.0.1 build v10.0.1rc0 (linux64)

CPU model: Intel(R) Xeon(R) CPU E5-2698 v4 @ 2.20GHz, instruction set [SSE2|AVX|AVX2]
Thread count: 40 physical cores, 80 logical processors, using up to 8 threads


Warning: excessive time spent in model updates.
Consider calling update less frequently.

Optimize a model with 1103654 rows, 641709 columns and 4636589 nonzeros
Model fingerprint: 0x867cbba7
Variable types: 599982 continuous, 41727 integer (41727 binary)
Coefficient statistics:
  Matrix range     [5e-02, 2e+04]
  Objective range  [2e-01, 8e+04]
  Bounds range     [5e-02, 2e+04]
  RHS range        [2e-19, 7e+03]
Presolve removed 268482 rows and 124061 columns (presolve time = 5s) ...
Presolve removed 276069 rows and 124881 columns (presolve time = 10s) ...
Presolve removed 278034 rows and 127964 columns (presolve time = 15s) ...
Presolve removed 286860 rows and 132515 columns (presolve time = 20s) ...
Presolve removed 290714 rows and 132696 columns (presolve time = 25s) ...
Presolve removed 291414 rows and 133412 columns (presolve time = 30s) ...
Presolve removed 291454 rows and 133462 columns (presolve time = 35s) ...
Presolve removed 291454 rows and 133462 columns (presolve time = 40s) ...
Presolve removed 291754 rows and 133482 columns (presolve time = 45s) ...
Sparsify removed 205272 nonzeros (5%)
Presolve removed 291754 rows and 132480 columns
Presolve time: 47.86s
Presolved: 811900 rows, 509229 columns, 3957911 nonzeros
Variable types: 475593 continuous, 33636 integer (33575 binary)

Deterministic concurrent LP optimizer: primal simplex, dual simplex, and barrier
Showing barrier log only...

Root barrier log...

Elapsed ordering time = 5s
Elapsed ordering time = 18s
Elapsed ordering time = 21s
Elapsed ordering time = 25s
Elapsed ordering time = 31s
Elapsed ordering time = 35s
Elapsed ordering time = 40s
Elapsed ordering time = 44s
Elapsed ordering time = 46s
Elapsed ordering time = 50s
Elapsed ordering time = 55s
Elapsed ordering time = 58s
Elapsed ordering time = 60s
Elapsed ordering time = 65s
Ordering time: 71.59s

Barrier statistics:
 Dense cols : 217
 AA' NZ     : 2.364e+07
 Factor NZ  : 3.533e+08 (roughly 3.4 GB of memory)
 Factor Ops : 1.543e+12 (roughly 15 seconds per iteration)
 Threads    : 5

                  Objective                Residual
Iter       Primal          Dual         Primal    Dual     Compl     Time
   0  -2.14546074e+11 -1.79993218e+13  1.25e+04 1.05e+04  1.17e+08   156s
   1  -1.50910874e+11 -1.33449135e+13  8.85e+03 1.09e+05  7.40e+07   169s
   2  -1.08609893e+11 -8.32101222e+12  6.44e+03 1.80e+04  4.77e+07   183s
   3  -2.38089145e+10 -3.63301629e+12  1.57e+03 3.25e+00  1.16e+07   197s
   4  -5.99435861e+09 -1.47669003e+12  5.59e+02 9.10e-01  3.91e+06   211s
   5   2.51446514e+09 -7.40157007e+11  1.13e+02 2.38e-01  9.71e+05   225s
   6   3.58204349e+09 -2.79647031e+11  5.81e+01 3.82e-02  3.50e+05   240s
   7   3.80718609e+09 -1.04352716e+11  2.32e+01 1.14e-02  1.11e+05   255s
   8   2.17257146e+09 -3.19537906e+10  3.47e+00 3.11e-03  2.42e+04   271s
   9   1.05497423e+09 -1.51729931e+10  1.55e+00 1.94e-03  1.07e+04   286s
  10   2.13103105e+08 -3.48144497e+09  1.78e-01 5.48e-04  2.22e+03   303s
  11   7.86777656e+07 -3.25108874e+08  6.08e-03 1.22e-04  2.38e+02   320s
  12   5.46574308e+07 -3.91439421e+07  6.84e-04 2.69e-04  5.52e+01   338s
  13   4.54423542e+07  1.07750316e+07  2.20e-04 1.14e-03  2.04e+01   354s
  14   4.07085142e+07  2.93139322e+07  8.45e-05 2.04e-04  6.71e+00   371s
  15   3.90454141e+07  3.18727623e+07  5.27e-05 1.34e-04  4.22e+00   386s
  16   3.80169324e+07  3.36976970e+07  3.50e-05 6.99e-05  2.54e+00   399s
  17   3.73634259e+07  3.44296099e+07  2.47e-05 4.67e-05  1.73e+00   413s
  18   3.69016181e+07  3.49455042e+07  1.74e-05 3.02e-05  1.15e+00   427s
  19   3.64883383e+07  3.52634286e+07  1.10e-05 1.94e-05  7.21e-01   442s
  20   3.62132563e+07  3.54620101e+07  7.06e-06 1.16e-05  4.42e-01   456s
  21   3.61269180e+07  3.55573735e+07  5.85e-06 7.51e-06  3.35e-01   470s
  22   3.60542893e+07  3.56107085e+07  4.81e-06 4.30e-06  2.61e-01   483s
  23   3.59978085e+07  3.56310974e+07  3.98e-06 3.43e-06  2.16e-01   495s
  24   3.59478680e+07  3.56414451e+07  3.23e-06 3.22e-06  1.80e-01   509s
  25   3.58701721e+07  3.56750218e+07  2.21e-06 2.02e-06  1.15e-01   522s
  26   3.58261637e+07  3.56875833e+07  1.61e-06 1.60e-06  8.16e-02   536s
  27   3.57935679e+07  3.56960752e+07  1.10e-06 1.60e-06  5.74e-02   551s
  28   3.57648548e+07  3.57094842e+07  8.52e-07 1.16e-06  3.26e-02   566s
  29   3.57490484e+07  3.57147318e+07  9.95e-07 6.96e-07  2.02e-02   583s
  30   3.57392192e+07  3.57184278e+07  8.36e-07 3.48e-07  1.22e-02   603s
  31   3.57336271e+07  3.57205910e+07  8.94e-07 1.65e-07  7.68e-03   627s
  32   3.57299281e+07  3.57209583e+07  6.76e-07 1.32e-07  5.28e-03   648s
  33   3.57270407e+07  3.57216960e+07  1.87e-06 6.99e-08  3.15e-03   671s
  34   3.57253128e+07  3.57221685e+07  1.48e-06 2.62e-08  1.85e-03   692s
  35   3.57242431e+07  3.57223495e+07  1.23e-06 1.32e-08  1.11e-03   711s
  36   3.57240370e+07  3.57224043e+07  1.10e-06 9.33e-09  9.61e-04   729s
  37   3.57235397e+07  3.57224291e+07  7.36e-07 7.56e-09  6.54e-04   745s
  38   3.57232883e+07  3.57224540e+07  5.47e-07 5.36e-09  4.91e-04   760s
  39   3.57231773e+07  3.57224720e+07  4.65e-07 5.33e-09  4.15e-04   778s
  40   3.57229500e+07  3.57224809e+07  2.56e-07 1.31e-08  2.76e-04   797s
  41   3.57228471e+07  3.57224977e+07  2.05e-07 6.60e-09  2.06e-04   818s
  42   3.57227712e+07  3.57225033e+07  1.77e-07 3.17e-09  1.58e-04   838s
  43   3.57227241e+07  3.57225089e+07  1.56e-07 5.83e-09  1.27e-04   858s
  44   3.57227024e+07  3.57225096e+07  1.56e-07 1.45e-08  1.13e-04   879s
  45   3.57226272e+07  3.57225240e+07  1.05e-07 3.92e-09  6.07e-05   900s
  46   3.57225916e+07  3.57225277e+07  9.52e-08 4.64e-09  3.76e-05   920s

Barrier solved model in 46 iterations and 920.05 seconds (858.22 work units)
Optimal objective 3.57225916e+07


Root crossover log...

  381673 DPushes remaining with DInf 7.4679055e-02               922s
  120731 DPushes remaining with DInf 0.0000000e+00               926s
   92833 DPushes remaining with DInf 0.0000000e+00               930s
   73944 DPushes remaining with DInf 0.0000000e+00               935s
   62758 DPushes remaining with DInf 0.0000000e+00               940s
   51261 DPushes remaining with DInf 0.0000000e+00               946s
   44537 DPushes remaining with DInf 0.0000000e+00               950s
   38010 DPushes remaining with DInf 0.0000000e+00               955s
   33749 DPushes remaining with DInf 0.0000000e+00               960s
   31860 DPushes remaining with DInf 0.0000000e+00               966s
   30200 DPushes remaining with DInf 0.0000000e+00               971s
   27387 DPushes remaining with DInf 0.0000000e+00               975s
   24207 DPushes remaining with DInf 0.0000000e+00               980s
   21094 DPushes remaining with DInf 0.0000000e+00               986s
   18783 DPushes remaining with DInf 0.0000000e+00               990s
   16536 DPushes remaining with DInf 0.0000000e+00               996s
   14916 DPushes remaining with DInf 0.0000000e+00              1000s
   12557 DPushes remaining with DInf 0.0000000e+00              1005s
    9502 DPushes remaining with DInf 0.0000000e+00              1011s
    8101 DPushes remaining with DInf 0.0000000e+00              1015s
    6627 DPushes remaining with DInf 0.0000000e+00              1020s
    4723 DPushes remaining with DInf 0.0000000e+00              1027s
    3257 DPushes remaining with DInf 0.0000000e+00              1032s
    2337 DPushes remaining with DInf 0.0000000e+00              1035s
     454 DPushes remaining with DInf 0.0000000e+00              1041s
       0 DPushes remaining with DInf 0.0000000e+00              1043s

  259916 PPushes remaining with PInf 5.3599802e-02              1043s
   74855 PPushes remaining with PInf 3.9049773e-01              1054s
   31115 PPushes remaining with PInf 4.0051750e-01              1056s
   14264 PPushes remaining with PInf 3.8473112e-01              1061s
    9271 PPushes remaining with PInf 3.4318375e-01              1066s
    5514 PPushes remaining with PInf 2.8232980e-01              1072s
       0 PPushes remaining with PInf 9.3783627e-01              1080s

  Push phase complete: Pinf 9.3783627e-01, Dinf 6.5002222e+06   1080s


Root simplex log...

Iteration    Objective       Primal Inf.    Dual Inf.      Time
  422011    3.5722540e+07   0.000000e+00   6.500222e+06   1081s
  422925    3.5722538e+07   0.000000e+00   9.179669e+03   1086s
  423839    3.5722538e+07   0.000000e+00   7.392251e+01   1090s
  424109    3.5722538e+07   0.000000e+00   0.000000e+00   1095s
  424109    3.5722538e+07   0.000000e+00   0.000000e+00   1096s
Waiting for other threads to finish...        1163s
Waiting for other threads to finish...        1230s
Waiting for other threads to finish...        1297s
Concurrent spin time: 201.66s (can be avoided by choosing Method=3)

Solved with barrier

Root relaxation: objective 3.572254e+07, 424109 iterations, 1245.06 seconds (1044.14 work units)

    Nodes    |    Current Node    |     Objective Bounds      |     Work
 Expl Unexpl |  Obj  Depth IntInf | Incumbent    BestBd   Gap | It/Node Time

     0     0 3.5723e+07    0  527          - 3.5723e+07      -     - 1321s
     0     0 3.5728e+07    0  593          - 3.5728e+07      -     - 1492s
     0     0 3.5728e+07    0  590          - 3.5728e+07      -     - 1494s
H    0     0                    8.730190e+09 3.5728e+07   100%     - 1496s
     0     0 3.5728e+07    0  628 8.7302e+09 3.5728e+07   100%     - 1504s
H    0     0                    8.730189e+09 3.5728e+07   100%     - 1530s
     0     0 3.5728e+07    0  534 8.7302e+09 3.5728e+07   100%     - 3655s
H    0     0                    8.499877e+09 3.5728e+07   100%     - 3692s
     0     0 3.5728e+07    0  589 8.4999e+09 3.5728e+07   100%     - 3749s
     0     0 3.5728e+07    0  583 8.4999e+09 3.5728e+07   100%     - 3751s
     0     0 3.5729e+07    0  546 8.4999e+09 3.5729e+07   100%     - 3803s
     0     0 3.5729e+07    0  613 8.4999e+09 3.5729e+07   100%     - 3812s
     0     0 3.5729e+07    0  605 8.4999e+09 3.5729e+07   100%     - 3817s
     0     0 3.5729e+07    0  605 8.4999e+09 3.5729e+07   100%     - 3820s
     0     0 3.5730e+07    0  593 8.4999e+09 3.5730e+07   100%     - 3868s
     0     0 3.5730e+07    0  587 8.4999e+09 3.5730e+07   100%     - 3873s
     0     0 3.5730e+07    0  574 8.4999e+09 3.5730e+07   100%     - 3937s
     0     0 3.5730e+07    0  578 8.4999e+09 3.5730e+07   100%     - 3942s
     0     0 3.5730e+07    0  576 8.4999e+09 3.5730e+07   100%     - 3944s
     0     0 3.5730e+07    0  576 8.4999e+09 3.5730e+07   100%     - 3947s
     0     0 3.5731e+07    0  592 8.4999e+09 3.5731e+07   100%     - 3997s
     0     0 3.5731e+07    0  554 8.4999e+09 3.5731e+07   100%     - 4037s
     0     0 3.5731e+07    0  554 8.4999e+09 3.5731e+07   100%     - 4041s
     0     0 3.5731e+07    0  565 8.4999e+09 3.5731e+07   100%     - 4087s
     0     0 3.5731e+07    0  567 8.4999e+09 3.5731e+07   100%     - 4091s
     0     0 3.5731e+07    0  575 8.4999e+09 3.5731e+07   100%     - 4109s
     0     0 3.5731e+07    0  575 8.4999e+09 3.5731e+07   100%     - 4115s
     0     0 3.5732e+07    0  525 8.4999e+09 3.5732e+07   100%     - 4148s
     0     0 3.5732e+07    0  540 8.4999e+09 3.5732e+07   100%     - 4162s
     0     0 3.5732e+07    0  540 8.4999e+09 3.5732e+07   100%     - 4167s
     0     0 3.5732e+07    0  509 8.4999e+09 3.5732e+07   100%     - 4201s
     0     0 3.5732e+07    0  520 8.4999e+09 3.5732e+07   100%     - 4213s
     0     0 3.5732e+07    0  520 8.4999e+09 3.5732e+07   100%     - 4217s
     0     0 3.5732e+07    0  487 8.4999e+09 3.5732e+07   100%     - 4273s
     0     0 3.5732e+07    0  487 8.4999e+09 3.5732e+07   100%     - 4321s
     0     0 3.5732e+07    0  487 8.4999e+09 3.5732e+07   100%     - 4327s
     0     0 3.5732e+07    0  451 8.4999e+09 3.5732e+07   100%     - 4359s
     0     0 3.5732e+07    0  451 8.4999e+09 3.5732e+07   100%     - 4388s
     0     0 3.5732e+07    0  440 8.4999e+09 3.5732e+07   100%     - 4420s
     0     0 3.5732e+07    0  440 8.4999e+09 3.5732e+07   100%     - 4461s
     0     0 3.5733e+07    0  515 8.4999e+09 3.5733e+07   100%     - 4497s
     0     0 3.5733e+07    0  511 8.4999e+09 3.5733e+07   100%     - 4511s
     0     0 3.5733e+07    0  511 8.4999e+09 3.5733e+07   100%     - 4515s
     0     0 3.5733e+07    0  495 8.4999e+09 3.5733e+07   100%     - 4546s
     0     0 3.5733e+07    0  483 8.4999e+09 3.5733e+07   100%     - 4608s
     0     0 3.5733e+07    0  491 8.4999e+09 3.5733e+07   100%     - 4638s
     0     0 3.5733e+07    0  491 8.4999e+09 3.5733e+07   100%     - 4680s
     0     0 3.5733e+07    0  503 8.4999e+09 3.5733e+07   100%     - 4711s
     0     0 3.5733e+07    0  503 8.4999e+09 3.5733e+07   100%     - 4782s
     0     0 3.5733e+07    0  510 8.4999e+09 3.5733e+07   100%     - 4810s
     0     0 3.5733e+07    0  516 8.4999e+09 3.5733e+07   100%     - 4888s
     0     0 3.5733e+07    0  524 8.4999e+09 3.5733e+07   100%     - 4943s
     0     0 3.5733e+07    0  524 8.4999e+09 3.5733e+07   100%     - 4946s
     0     0 3.5733e+07    0  521 8.4999e+09 3.5733e+07   100%     - 4973s
     0     0 3.5733e+07    0  521 8.4999e+09 3.5733e+07   100%     - 4985s
     0     0 3.5733e+07    0  528 8.4999e+09 3.5733e+07   100%     - 5011s
     0     0 3.5733e+07    0  528 8.4999e+09 3.5733e+07   100%     - 5069s
     0     0 3.5733e+07    0  506 8.4999e+09 3.5733e+07   100%     - 5093s
     0     0 3.5733e+07    0  506 8.4999e+09 3.5733e+07   100%     - 5101s
     0     0 3.5733e+07    0  510 8.4999e+09 3.5733e+07   100%     - 5128s
     0     0 3.5733e+07    0  510 8.4999e+09 3.5733e+07   100%     - 5142s
     0     2 3.5733e+07    0  510 8.4999e+09 3.5733e+07   100%     - 5273s
     1     4 3.5825e+07    1  379 8.4999e+09 3.5734e+07   100% 16713 5409s
     3     8 3.5870e+07    2  331 8.4999e+09 3.5790e+07   100% 17587 5525s
     7    16 3.5875e+07    3  364 8.4999e+09 3.5794e+07   100% 10322 5705s
    15    23 3.5876e+07    4  366 8.4999e+09 3.5826e+07   100% 10372 5735s
    23    28 3.5879e+07    4  367 8.4999e+09 3.5826e+07   100%  7377 5902s
    31    35 3.5880e+07    5  396 8.4999e+09 3.5828e+07   100%  6895 5957s
H   32    35                    1.018304e+08 3.5828e+07  64.8%  6679 5957s
    39    41 3.5883e+07    5  353 1.0183e+08 3.5828e+07  64.8%  5729 5999s
    47    51 3.5886e+07    6  401 1.0183e+08 3.5831e+07  64.8%  4928 6051s
    58    59 3.5885e+07    6  362 1.0183e+08 3.5831e+07  64.8%  4347 6115s
H   68    67                    1.017903e+08 3.5831e+07  64.8%  3951 6215s
H   69    67                    1.017018e+08 3.5831e+07  64.8%  3894 6215s
H   74    67                    1.016716e+08 3.5831e+07  64.8%  3678 6215s
    76    76 3.5887e+07    8  360 1.0167e+08 3.5831e+07  64.8%  3608 6268s
    86    86 3.5886e+07    8  355 1.0167e+08 3.5831e+07  64.8%  3349 6324s
    97    96 3.5887e+07    9  364 1.0167e+08 3.5831e+07  64.8%  3156 6383s
H  109   103                    1.015211e+08 3.5831e+07  64.7%  2903 6523s
H  110   103                    3.723219e+07 3.5831e+07  3.76%  2891 6524s

Cutting planes:
  Gomory: 121
  Implied bound: 194
  Clique: 1
  MIR: 239
  StrongCG: 3
  Flow cover: 732
  RLT: 103
  Relax-and-lift: 17

Explored 117 nodes (1201275 simplex iterations) in 6524.56 seconds (5271.50 work units)
Thread count was 8 (of 80 available processors)

Solution count 9: 3.72322e+07 3.72322e+07 1.01521e+08 ... 8.73019e+09

Optimal solution found (tolerance 1.00e-01)
Best objective 3.723218937765e+07, best bound 3.583140858540e+07, gap 3.7623%

User-callback calls 832236, time in user-callback 3.71 sec
